NAME          RCONMILP
ROWS
 N  00000000
 E  00000001
 E  00000002
 E  00000003
 E  00000004
 E  00000005
 E  00000006
 E  00000007
 L  00000008
 L  00000009
 L  00000010
 L  00000011
 L  00000012
 L  00000013
COLUMNS
    INT1      'MARKER'                 'INTORG'
    00000000  00000000 3000000
    00000000  00000005 1
    00000000  00000006 1
    00000000  00000007 1
    00000000  00000008 1
    00000000  00000011 1
    00000001  00000000 6000000
    00000001  00000005 1
    00000001  00000006 1
    00000001  00000007 1
    00000001  00000009 1
    00000001  00000011 1
    00000002  00000000 9000000
    00000002  00000005 1
    00000002  00000006 1
    00000002  00000007 1
    00000002  00000010 1
    00000002  00000011 1
    00000003  00000000 1333333
    00000003  00000003 1
    00000003  00000004 1
    00000003  00000008 1
    00000003  00000012 1
    00000004  00000000 2666666
    00000004  00000003 1
    00000004  00000004 1
    00000004  00000009 1
    00000004  00000012 1
    00000005  00000000 4000000
    00000005  00000003 1
    00000005  00000004 1
    00000005  00000010 1
    00000005  00000012 1
    00000006  00000000 2333333
    00000006  00000001 1
    00000006  00000002 1
    00000006  00000004 1
    00000006  00000008 1
    00000006  00000013 1
    00000007  00000000 4666666
    00000007  00000001 1
    00000007  00000002 1
    00000007  00000004 1
    00000007  00000009 1
    00000007  00000013 1
    00000008  00000000 7000000
    00000008  00000001 1
    00000008  00000002 1
    00000008  00000004 1
    00000008  00000010 1
    00000008  00000013 1
    INT1      'MARKER'                 'INTEND'
RHS
    RHS1      00000001 1
    RHS1      00000002 1
    RHS1      00000003 1
    RHS1      00000004 2
    RHS1      00000005 1
    RHS1      00000006 1
    RHS1      00000007 1
    RHS1      00000008 1
    RHS1      00000009 1
    RHS1      00000010 1
    RHS1      00000011 1
    RHS1      00000012 1
    RHS1      00000013 1
BOUNDS
 UI BOUND     00000000       1
 UI BOUND     00000001       1
 UI BOUND     00000002       1
 UI BOUND     00000003       1
 UI BOUND     00000004       1
 UI BOUND     00000005       1
 UI BOUND     00000006       1
 UI BOUND     00000007       1
 UI BOUND     00000008       1
 LI BOUND     00000000       0
 LI BOUND     00000001       0
 LI BOUND     00000002       0
 LI BOUND     00000003       0
 LI BOUND     00000004       0
 LI BOUND     00000005       0
 LI BOUND     00000006       0
 LI BOUND     00000007       0
 LI BOUND     00000008       0
ENDATA
